\ Model Routes
\ LP format - for model browsing. Use MPS format to capture full model detail.
Maximize
  - 191.7153353028244 R{0,0} + 623.2046552982704 R{0,1}
   + 623.2046552982704 R{0,2} - 249.2301939667805 R{0,3}
   + 222.8649545650627 R{0,4} + 892.5014194710873 R{0,5}
   + 234.7650315204939 R{0,6} + 538.8507546726804 R{0,7}
   + 900.5037914261543 R{0,8} + 678.8133676922481 R{0,9}
   + 845.6068685630851 R{0,10} + 852.3918860260821 R{0,11}
   + 827.8992369343669 R{0,12} + 885.9463648742085 R{0,13}
   + 538.8507546726804 R{0,14} + 453.2501453660439 R{0,15}
   + 655.9325410177762 R{0,16} - 256.140831891889 R{1,0}
   + 41.44651618699046 R{1,1} + 468.947430945026 R{1,2}
   + 915.4279928859155 R{1,3} + 525.1229571397182 R{1,4}
   + 886.7355560582841 R{1,5} + 939.0754944476705 R{1,6}
   + 877.2465427536613 R{1,7} + 198.4767205525033 R{1,8}
   + 90.95799008240454 R{1,9} + 496.1781677137756 R{1,10}
   + 1198.881248318718 R{2,0} + 1198.881248318718 R{2,1}
   - 278.4443928850388 R{2,2} - 59.13410337035452 R{2,3}
   + 602.7748664658451 R{2,4} + 1100.505917706273 R{2,5}
   + 947.5724883564153 R{2,6} + 837.8406441717329 R{2,7}
   + 1487.248871029934 R{2,8} + 972.0651374481311 R{2,9}
   + 837.8406441717329 R{2,10} + 1089.149404134036 R{2,11}
   + 591.0325885092791 R{2,12} + 1127.126554447374 R{2,13}
   + 972.0651374481311 R{2,14} + 473.9263938819845 R{2,15}
   + 1003.836275181351 R{2,16} + 1086.524034914644 R{2,17}
   + 593.121387835117 R{2,18} + 1767.937380846129 R{2,19}
   + 961.2818607011829 R{2,20} + 1089.149404134036 R{2,21}
   - 260.2482995389823 R{3,0} + 637.8926476026959 R{3,1}
   + 1005.833610869225 R{3,2} + 1366.836328139346 R{3,3}
   + 819.2880729150976 R{3,4} + 1107.637633749286 R{3,5}
   + 830.7076207394684 R{3,6} + 433.3006762747734 R{3,7}
   + 1080.667276420413 R{3,8} + 577.5437232605441 R{3,9}
   + 1220.026998922462 R{3,10} + 540.4563129620251 R{3,11}
   + 1705.153514632204 R{3,12} + 960.0096550362455 R{3,13}
   + 1372.228409697454 R{3,14} + 1597.322908062649 R{3,15}
   + 1378.255875963717 R{3,16} + 752.4862300849632 R{3,17}
   + 1080.667276420413 R{3,18} + 1128.296220282772 R{3,19}
   + 1432.314080407738 R{3,20} - 242.5208875955131 R{4,0}
   + 1055.572474837385 R{4,1} + 1576.196574514046 R{4,2}
   + 1624.684587038847 R{4,3} + 1094.135564208969 R{4,4}
   + 636.1946624570069 R{4,5} + 1600.37873589961 R{4,6}
   + 1082.874083375352 R{4,7} + 1094.135564208969 R{4,8}
   + 1094.135564208969 R{4,9} + 1082.874083375352 R{4,10}
   + 1079.754636222949 R{4,11} + 1104.060487362186 R{4,12}
   + 929.7243682388591 R{4,13} + 926.6049210864558 R{4,14}
   + 1079.754636222949 R{4,15} + 1229.524089499266 R{4,16}
   + 1082.874083375352 R{4,17} + 1079.754636222949 R{4,18}
   + 1082.874083375352 R{4,19} + 1094.135564208969 R{4,20}
   + 929.7243682388591 R{4,21} + 976.8566617261642 R{4,22}
   + 1201.782847782488 R{4,23} + 1201.782847782488 R{4,24}
   - 231.9775664337766 R{5,0} + 166.8396544238635 R{5,1}
   + 729.4065638506388 R{5,2} + 161.5413366535873 R{5,3}
   + 161.5413366535873 R{5,4} + 83.418257037986 R{5,5}
   + 581.1159149855982 R{5,6} + 83.418257037986 R{5,7}
   + 1405.479790872982 R{5,8} + 198.6375892322362 R{5,9}
   + 581.1159149855982 R{5,10} + 1358.582142610948 R{5,11}
   + 83.418257037986 R{5,12} + 130.3159053000199 R{5,13}
   + 208.4389849156212 R{5,14} + 746.0055580428657 R{5,15}
   + 552.6662865493877 R{5,16} + 161.5413366535873 R{5,17}
   + 83.418257037986 R{5,18} + 198.6375892322362 R{5,19}
   + 534.2182667235643 R{5,20} + 1824.717921755576 R{5,21}
   - 231.1436095783099 R{6,0} + 1195.286596672249 R{6,1}
   + 1936.553790555055 R{6,2} + 2357.708821428034 R{6,3}
   + 1251.018024802483 R{6,4} + 1266.921618395295 R{6,5}
   + 1957.892077941272 R{6,6} + 1127.443996893114 R{6,7}
   + 907.268370487463 R{6,8} + 1986.957365820842 R{6,9}
   + 1739.947837583736 R{6,10} + 1098.378709013544 R{6,11}
   + 1739.947837583736 R{6,12} + 1098.972354259191 R{6,13}
   + 1734.619984719289 R{6,14} + 1981.629512956395 R{6,15}
   + 1251.018024802483 R{6,16} + 666.4466610270006 R{6,17}
   + 1637.171645020756 R{6,18} + 1245.690171938036 R{6,19}
   + 1245.690171938036 R{6,20} + 1502.502757808551 R{6,21}
   + 1981.629512956395 R{6,22} + 1981.629512956395 R{6,23}
   + 1294.723986271184 R{6,24} + 1221.952736922912 R{6,25}
Subject To
 R00: R{0,0} <= 1
 R01: R{0,1} <= 1
 R02: R{0,2} <= 1
 R03: R{0,3} <= 1
 R04: R{0,4} <= 1
 R05: R{0,5} <= 1
 R06: R{0,6} <= 1
 R07: R{0,7} <= 1
 R08: R{0,8} <= 1
 R09: R{0,9} <= 1
 R010: R{0,10} <= 1
 R011: R{0,11} <= 1
 R012: R{0,12} <= 1
 R013: R{0,13} <= 1
 R014: R{0,14} <= 1
 R015: R{0,15} <= 1
 R016: R{0,16} <= 1
 R017: R{1,0} <= 1
 R018: R{1,1} <= 1
 R019: R{1,2} <= 1
 R020: R{1,3} <= 1
 R021: R{1,4} <= 1
 R022: R{1,5} <= 1
 R023: R{1,6} <= 1
 R024: R{1,7} <= 1
 R025: R{1,8} <= 1
 R026: R{1,9} <= 1
 R027: R{1,10} <= 1
 R028: R{2,0} <= 1
 R029: R{2,1} <= 1
 R030: R{2,2} <= 1
 R031: R{2,3} <= 1
 R032: R{2,4} <= 1
 R033: R{2,5} <= 1
 R034: R{2,6} <= 1
 R035: R{2,7} <= 1
 R036: R{2,8} <= 1
 R037: R{2,9} <= 1
 R038: R{2,10} <= 1
 R039: R{2,11} <= 1
 R040: R{2,12} <= 1
 R041: R{2,13} <= 1
 R042: R{2,14} <= 1
 R043: R{2,15} <= 1
 R044: R{2,16} <= 1
 R045: R{2,17} <= 1
 R046: R{2,18} <= 1
 R047: R{2,19} <= 1
 R048: R{2,20} <= 1
 R049: R{2,21} <= 1
 R050: R{3,0} <= 1
 R051: R{3,1} <= 1
 R052: R{3,2} <= 1
 R053: R{3,3} <= 1
 R054: R{3,4} <= 1
 R055: R{3,5} <= 1
 R056: R{3,6} <= 1
 R057: R{3,7} <= 1
 R058: R{3,8} <= 1
 R059: R{3,9} <= 1
 R060: R{3,10} <= 1
 R061: R{3,11} <= 1
 R062: R{3,12} <= 1
 R063: R{3,13} <= 1
 R064: R{3,14} <= 1
 R065: R{3,15} <= 1
 R066: R{3,16} <= 1
 R067: R{3,17} <= 1
 R068: R{3,18} <= 1
 R069: R{3,19} <= 1
 R070: R{3,20} <= 1
 R071: R{4,0} <= 1
 R072: R{4,1} <= 1
 R073: R{4,2} <= 1
 R074: R{4,3} <= 1
 R075: R{4,4} <= 1
 R076: R{4,5} <= 1
 R077: R{4,6} <= 1
 R078: R{4,7} <= 1
 R079: R{4,8} <= 1
 R080: R{4,9} <= 1
 R081: R{4,10} <= 1
 R082: R{4,11} <= 1
 R083: R{4,12} <= 1
 R084: R{4,13} <= 1
 R085: R{4,14} <= 1
 R086: R{4,15} <= 1
 R087: R{4,16} <= 1
 R088: R{4,17} <= 1
 R089: R{4,18} <= 1
 R090: R{4,19} <= 1
 R091: R{4,20} <= 1
 R092: R{4,21} <= 1
 R093: R{4,22} <= 1
 R094: R{4,23} <= 1
 R095: R{4,24} <= 1
 R096: R{5,0} <= 1
 R097: R{5,1} <= 1
 R098: R{5,2} <= 1
 R099: R{5,3} <= 1
 R0100: R{5,4} <= 1
 R0101: R{5,5} <= 1
 R0102: R{5,6} <= 1
 R0103: R{5,7} <= 1
 R0104: R{5,8} <= 1
 R0105: R{5,9} <= 1
 R0106: R{5,10} <= 1
 R0107: R{5,11} <= 1
 R0108: R{5,12} <= 1
 R0109: R{5,13} <= 1
 R0110: R{5,14} <= 1
 R0111: R{5,15} <= 1
 R0112: R{5,16} <= 1
 R0113: R{5,17} <= 1
 R0114: R{5,18} <= 1
 R0115: R{5,19} <= 1
 R0116: R{5,20} <= 1
 R0117: R{5,21} <= 1
 R0118: R{6,0} <= 1
 R0119: R{6,1} <= 1
 R0120: R{6,2} <= 1
 R0121: R{6,3} <= 1
 R0122: R{6,4} <= 1
 R0123: R{6,5} <= 1
 R0124: R{6,6} <= 1
 R0125: R{6,7} <= 1
 R0126: R{6,8} <= 1
 R0127: R{6,9} <= 1
 R0128: R{6,10} <= 1
 R0129: R{6,11} <= 1
 R0130: R{6,12} <= 1
 R0131: R{6,13} <= 1
 R0132: R{6,14} <= 1
 R0133: R{6,15} <= 1
 R0134: R{6,16} <= 1
 R0135: R{6,17} <= 1
 R0136: R{6,18} <= 1
 R0137: R{6,19} <= 1
 R0138: R{6,20} <= 1
 R0139: R{6,21} <= 1
 R0140: R{6,22} <= 1
 R0141: R{6,23} <= 1
 R0142: R{6,24} <= 1
 R0143: R{6,25} <= 1
 R1_0: R{0,0} + R{0,1} + R{0,2} + R{0,3} + R{0,4} + R{0,5} + R{0,6}
   + R{0,7} + R{0,8} + R{0,9} + R{0,10} + R{0,11} + R{0,12} + R{0,13}
   + R{0,14} + R{0,15} + R{0,16} <= 1
 R1_1: R{1,0} + R{1,1} + R{1,2} + R{1,3} + R{1,4} + R{1,5} + R{1,6}
   + R{1,7} + R{1,8} + R{1,9} + R{1,10} <= 1
 R1_2: R{2,0} + R{2,1} + R{2,2} + R{2,3} + R{2,4} + R{2,5} + R{2,6}
   + R{2,7} + R{2,8} + R{2,9} + R{2,10} + R{2,11} + R{2,12} + R{2,13}
   + R{2,14} + R{2,15} + R{2,16} + R{2,17} + R{2,18} + R{2,19} + R{2,20}
   + R{2,21} <= 1
 R1_3: R{3,0} + R{3,1} + R{3,2} + R{3,3} + R{3,4} + R{3,5} + R{3,6}
   + R{3,7} + R{3,8} + R{3,9} + R{3,10} + R{3,11} + R{3,12} + R{3,13}
   + R{3,14} + R{3,15} + R{3,16} + R{3,17} + R{3,18} + R{3,19} + R{3,20}
   <= 1
 R1_4: R{4,0} + R{4,1} + R{4,2} + R{4,3} + R{4,4} + R{4,5} + R{4,6}
   + R{4,7} + R{4,8} + R{4,9} + R{4,10} + R{4,11} + R{4,12} + R{4,13}
   + R{4,14} + R{4,15} + R{4,16} + R{4,17} + R{4,18} + R{4,19} + R{4,20}
   + R{4,21} + R{4,22} + R{4,23} + R{4,24} <= 1
 R1_5: R{5,0} + R{5,1} + R{5,2} + R{5,3} + R{5,4} + R{5,5} + R{5,6}
   + R{5,7} + R{5,8} + R{5,9} + R{5,10} + R{5,11} + R{5,12} + R{5,13}
   + R{5,14} + R{5,15} + R{5,16} + R{5,17} + R{5,18} + R{5,19} + R{5,20}
   + R{5,21} <= 1
 R1_6: R{6,0} + R{6,1} + R{6,2} + R{6,3} + R{6,4} + R{6,5} + R{6,6}
   + R{6,7} + R{6,8} + R{6,9} + R{6,10} + R{6,11} + R{6,12} + R{6,13}
   + R{6,14} + R{6,15} + R{6,16} + R{6,17} + R{6,18} + R{6,19} + R{6,20}
   + R{6,21} + R{6,22} + R{6,23} + R{6,24} + R{6,25} <= 1
 R2_0: <= 0
 R2_1: 10 R{3,1} + 10 R{3,2} + 10 R{3,3} + 10 R{3,4} + 10 R{3,6}
   + 10 R{3,7} + 10 R{3,8} + 10 R{3,9} + 10 R{3,10} + 10 R{3,12}
   + 10 R{3,15} + 10 R{3,16} + 10 R{3,18} + 10 R{3,19} + 10 R{3,20} <= 10
 R2_2: <= 0
 R2_3: 4 R{5,1} + 4 R{5,2} + 4 R{5,3} + 4 R{5,4} + 4 R{5,9} + 4 R{5,14}
   + 4 R{5,15} + 4 R{5,17} + 4 R{5,19} <= 4
 R2_4: <= 0
 R2_5: 5 R{5,1} + 5 R{5,2} + 5 R{5,6} + 5 R{5,8} + 5 R{5,9} + 5 R{5,10}
   + 5 R{5,13} + 5 R{5,14} + 5 R{5,16} + 5 R{5,19} + 5 R{5,21} <= 5
 R2_6: 10 R{1,1} + 10 R{1,9} <= 10
 R2_7: 6 R{1,1} + 6 R{1,2} + 6 R{1,3} + 6 R{1,4} + 6 R{1,5} + 6 R{1,6}
   + 6 R{1,7} + 6 R{1,8} + 6 R{1,9} + 6 R{1,10} <= 6
 R2_8: <= 0
 R2_9: 12 R{4,1} + 12 R{4,2} + 12 R{4,3} + 12 R{4,4} + 12 R{4,6}
   + 12 R{4,7} + 12 R{4,8} + 12 R{4,9} + 12 R{4,10} + 12 R{4,11}
   + 12 R{4,12} + 12 R{4,13} + 12 R{4,14} + 12 R{4,15} + 12 R{4,16}
   + 12 R{4,17} + 12 R{4,18} + 12 R{4,19} + 12 R{4,20} + 12 R{4,21}
   + 12 R{4,22} + 12 R{4,23} + 12 R{4,24} <= 12
 R2_10: 8 R{0,10} + 8 R{0,11} + 8 R{0,16} + 8 R{2,8} + 8 R{2,9} + 8 R{2,14}
   + 8 R{2,16} + 8 R{2,17} + 8 R{2,18} + 8 R{6,1} + 8 R{6,2} + 8 R{6,4}
   + 8 R{6,5} + 8 R{6,7} + 8 R{6,9} + 8 R{6,13} + 8 R{6,15} + 8 R{6,16}
   + 8 R{6,19} + 8 R{6,20} + 8 R{6,22} + 8 R{6,23} <= 8
 R2_11: 15 R{0,16} <= 15
 R2_12: <= 0
 R2_13: <= 0
 R2_14: <= 0
 R2_15: 11 R{0,0} + 11 R{0,1} + 11 R{0,2} + 11 R{0,7} + 11 R{0,10}
   + 11 R{0,14} + 11 R{0,15} + 11 R{4,1} + 11 R{4,2} + 11 R{4,3}
   + 11 R{4,4} + 11 R{4,8} + 11 R{4,9} + 11 R{4,12} + 11 R{4,20}
   + 11 R{4,22} + 11 R{4,23} + 11 R{4,24} <= 11
 R2_16: 5 R{0,11} + 5 R{0,12} + 5 R{0,13} + 5 R{0,15} + 5 R{0,16}
   + 5 R{2,16} + 5 R{4,16} <= 5
 R2_17: <= 0
 R2_18: <= 0
 R2_19: 11 R{1,7} + 11 R{4,1} + 11 R{4,2} + 11 R{4,3} + 11 R{4,4}
   + 11 R{4,6} + 11 R{4,7} + 11 R{4,8} + 11 R{4,9} + 11 R{4,10}
   + 11 R{4,11} + 11 R{4,12} + 11 R{4,13} + 11 R{4,14} + 11 R{4,15}
   + 11 R{4,16} + 11 R{4,17} + 11 R{4,18} + 11 R{4,19} + 11 R{4,20}
   + 11 R{4,21} + 11 R{4,22} + 11 R{4,23} + 11 R{4,24} <= 11
 R2_20: 13 R{0,9} + 13 R{2,5} + 13 R{2,13} + 13 R{5,6} + 13 R{5,8}
   + 13 R{5,10} + 13 R{5,11} + 13 R{5,16} + 13 R{5,20} + 13 R{5,21}
   + 13 R{6,1} + 13 R{6,2} + 13 R{6,3} + 13 R{6,4} + 13 R{6,5} + 13 R{6,6}
   + 13 R{6,7} + 13 R{6,8} + 13 R{6,9} + 13 R{6,10} + 13 R{6,11}
   + 13 R{6,12} + 13 R{6,13} + 13 R{6,14} + 13 R{6,15} + 13 R{6,16}
   + 13 R{6,18} + 13 R{6,19} + 13 R{6,20} + 13 R{6,21} + 13 R{6,22}
   + 13 R{6,23} + 13 R{6,25} <= 13
 R2_21: <= 0
 R2_22: <= 0
 R2_23: 14 R{0,1} + 14 R{0,2} + 14 R{0,10} + 14 R{0,11} + 14 R{0,12}
   + 14 R{0,13} + 14 R{2,0} + 14 R{2,1} + 14 R{2,6} + 14 R{2,8} + 14 R{2,9}
   + 14 R{2,12} + 14 R{2,14} + 14 R{2,17} + 14 R{2,18} + 14 R{2,19}
   + 14 R{6,3} <= 14
 R2_24: 10 R{3,1} + 10 R{3,2} + 10 R{3,3} + 10 R{3,5} + 10 R{3,8}
   + 10 R{3,9} + 10 R{3,10} + 10 R{3,12} + 10 R{3,13} + 10 R{3,14}
   + 10 R{3,15} + 10 R{3,16} + 10 R{3,17} + 10 R{3,18} + 10 R{3,20}
   + 10 R{5,8} + 10 R{5,11} + 10 R{5,21} <= 10
 R2_25: 13 R{4,1} + 13 R{4,2} + 13 R{4,3} + 13 R{4,4} + 13 R{4,6}
   + 13 R{4,7} + 13 R{4,8} + 13 R{4,9} + 13 R{4,10} + 13 R{4,11}
   + 13 R{4,12} + 13 R{4,13} + 13 R{4,14} + 13 R{4,15} + 13 R{4,16}
   + 13 R{4,17} + 13 R{4,18} + 13 R{4,19} + 13 R{4,20} + 13 R{4,21}
   + 13 R{4,23} + 13 R{4,24} + 13 R{5,8} + 13 R{5,11} + 13 R{5,21} <= 13
 R2_26: 6 R{5,1} + 6 R{5,2} + 6 R{5,3} + 6 R{5,4} + 6 R{5,5} + 6 R{5,6}
   + 6 R{5,7} + 6 R{5,8} + 6 R{5,9} + 6 R{5,10} + 6 R{5,11} + 6 R{5,12}
   + 6 R{5,13} + 6 R{5,14} + 6 R{5,15} + 6 R{5,16} + 6 R{5,17} + 6 R{5,18}
   + 6 R{5,19} + 6 R{5,20} + 6 R{5,21} <= 6
 R2_27: 5 R{1,3} + 5 R{1,6} + 5 R{5,21} + 5 R{6,1} + 5 R{6,2} + 5 R{6,3}
   + 5 R{6,4} + 5 R{6,5} + 5 R{6,6} + 5 R{6,7} + 5 R{6,9} + 5 R{6,10}
   + 5 R{6,11} + 5 R{6,12} + 5 R{6,13} + 5 R{6,14} + 5 R{6,15} + 5 R{6,16}
   + 5 R{6,17} + 5 R{6,18} + 5 R{6,19} + 5 R{6,20} + 5 R{6,21} + 5 R{6,22}
   + 5 R{6,23} + 5 R{6,24} + 5 R{6,25} <= 5
 R2_28: <= 0
 R2_29: <= 0
 R2_30: <= 0
 R2_31: <= 0
 R2_32: 7 R{0,4} + 7 R{0,5} + 7 R{0,6} + 7 R{0,8} + 7 R{0,9} <= 7
 R2_33: <= 0
 R2_34: 5 R{1,10} + 5 R{2,19} + 5 R{2,20} + 5 R{4,22} <= 5
 R2_35: 13 R{2,19} + 13 R{2,20} <= 13
 R2_36: <= 0
 R2_37: 5 R{3,1} + 5 R{3,2} + 5 R{3,3} + 5 R{3,4} + 5 R{3,5} + 5 R{3,6}
   + 5 R{3,7} + 5 R{3,8} + 5 R{3,9} + 5 R{3,10} + 5 R{3,11} + 5 R{3,12}
   + 5 R{3,13} + 5 R{3,14} + 5 R{3,15} + 5 R{3,16} + 5 R{3,17} + 5 R{3,18}
   + 5 R{3,19} <= 5
 R2_38: <= 0
 R2_39: <= 0
 R2_40: 15 R{2,3} + 15 R{2,4} + 15 R{2,5} + 15 R{2,13} <= 15
 R2_41: 5 R{1,5} + 5 R{1,8} + 5 R{1,10} + 5 R{3,2} + 5 R{3,3} + 5 R{3,4}
   + 5 R{3,5} + 5 R{3,6} + 5 R{3,8} + 5 R{3,10} + 5 R{3,11} + 5 R{3,12}
   + 5 R{3,13} + 5 R{3,14} + 5 R{3,15} + 5 R{3,16} + 5 R{3,18} + 5 R{3,19}
   + 5 R{3,20} <= 5
 R2_42: 4 R{2,3} + 4 R{2,4} + 4 R{2,5} + 4 R{2,13} <= 4
 R2_43: <= 0
 R2_44: <= 0
 R2_45: <= 0
 R2_46: 9 R{0,13} + 9 R{2,7} + 9 R{2,10} + 9 R{2,11} + 9 R{2,21} + 9 R{4,5}
   <= 9
 R2_47: 7 R{5,1} + 7 R{5,2} + 7 R{5,3} + 7 R{5,4} + 7 R{5,5} + 7 R{5,6}
   + 7 R{5,7} + 7 R{5,8} + 7 R{5,9} + 7 R{5,10} + 7 R{5,11} + 7 R{5,12}
   + 7 R{5,13} + 7 R{5,14} + 7 R{5,15} + 7 R{5,17} + 7 R{5,18} + 7 R{5,19}
   + 7 R{5,20} <= 7
 R2_48: 4 R{4,1} + 4 R{4,2} + 4 R{4,3} + 4 R{4,4} + 4 R{4,6} + 4 R{4,7}
   + 4 R{4,8} + 4 R{4,9} + 4 R{4,10} + 4 R{4,11} + 4 R{4,12} + 4 R{4,13}
   + 4 R{4,14} + 4 R{4,15} + 4 R{4,16} + 4 R{4,17} + 4 R{4,18} + 4 R{4,19}
   + 4 R{4,20} + 4 R{4,21} + 4 R{4,22} + 4 R{4,23} + 4 R{4,24} <= 4
 R2_49: <= 0
 R2_50: <= 0
 R2_51: <= 0
 R2_52: 10 R{4,5} <= 10
 R2_53: 13 R{4,1} + 13 R{4,2} + 13 R{4,3} + 13 R{4,4} + 13 R{4,6}
   + 13 R{4,7} + 13 R{4,8} + 13 R{4,9} + 13 R{4,10} + 13 R{4,11}
   + 13 R{4,12} + 13 R{4,13} + 13 R{4,14} + 13 R{4,15} + 13 R{4,16}
   + 13 R{4,17} + 13 R{4,18} + 13 R{4,19} + 13 R{4,20} + 13 R{4,21}
   + 13 R{4,22} + 13 R{4,23} + 13 R{4,24} <= 13
 R2_54: 9 R{3,1} + 9 R{3,2} + 9 R{3,3} + 9 R{3,4} + 9 R{3,5} + 9 R{3,6}
   + 9 R{3,7} + 9 R{3,8} + 9 R{3,10} + 9 R{3,11} + 9 R{3,12} + 9 R{3,13}
   + 9 R{3,14} + 9 R{3,15} + 9 R{3,16} + 9 R{3,17} + 9 R{3,18} + 9 R{3,19}
   + 9 R{3,20} <= 9
 R2_55: 8 R{6,1} + 8 R{6,2} + 8 R{6,3} + 8 R{6,4} + 8 R{6,5} + 8 R{6,6}
   + 8 R{6,7} + 8 R{6,9} + 8 R{6,10} + 8 R{6,11} + 8 R{6,12} + 8 R{6,13}
   + 8 R{6,14} + 8 R{6,15} + 8 R{6,16} + 8 R{6,17} + 8 R{6,18} + 8 R{6,19}
   + 8 R{6,20} + 8 R{6,22} + 8 R{6,23} + 8 R{6,24} + 8 R{6,25} <= 8
 R2_56: 6 R{0,7} + 6 R{0,14} + 6 R{2,0} + 6 R{2,1} + 6 R{2,6} + 6 R{2,7}
   + 6 R{2,8} + 6 R{2,9} + 6 R{2,10} + 6 R{2,11} + 6 R{2,14} + 6 R{2,15}
   + 6 R{2,16} + 6 R{2,17} + 6 R{2,18} + 6 R{2,19} + 6 R{2,20} + 6 R{2,21}
   + 6 R{3,15} + 6 R{3,20} + 6 R{5,8} + 6 R{5,11} + 6 R{5,21} <= 6
 R2_57: <= 0
 R2_58: <= 0
 R2_59: 10 R{2,8} + 10 R{2,19} + 10 R{2,20} + 10 R{3,12} <= 10
 R2_60: <= 0
 R2_61: 9 R{2,17} + 9 R{4,23} + 9 R{4,24} <= 9
 R2_62: <= 0
 R2_63: <= 0
 R2_64: <= 0
 R2_65: 5 R{0,10} + 5 R{2,0} + 5 R{2,1} + 5 R{2,8} + 5 R{2,11} + 5 R{2,16}
   + 5 R{2,17} + 5 R{2,19} + 5 R{2,20} + 5 R{2,21} + 5 R{6,1} + 5 R{6,2}
   + 5 R{6,3} + 5 R{6,4} + 5 R{6,5} + 5 R{6,6} + 5 R{6,7} + 5 R{6,9}
   + 5 R{6,11} + 5 R{6,13} + 5 R{6,15} + 5 R{6,16} + 5 R{6,17} + 5 R{6,19}
   + 5 R{6,20} + 5 R{6,22} + 5 R{6,23} + 5 R{6,25} <= 5
 R2_66: 7 R{6,1} + 7 R{6,2} + 7 R{6,3} + 7 R{6,4} + 7 R{6,5} + 7 R{6,6}
   + 7 R{6,7} + 7 R{6,9} + 7 R{6,10} + 7 R{6,11} + 7 R{6,12} + 7 R{6,14}
   + 7 R{6,15} + 7 R{6,16} + 7 R{6,17} + 7 R{6,18} + 7 R{6,19} + 7 R{6,20}
   + 7 R{6,21} + 7 R{6,22} + 7 R{6,23} + 7 R{6,24} + 7 R{6,25} <= 7
 R2_67: 3 R{0,1} + 3 R{0,2} + 3 R{0,7} + 3 R{0,10} + 3 R{0,11} + 3 R{0,12}
   + 3 R{0,14} + 3 R{0,15} + 3 R{0,16} + 3 R{2,0} + 3 R{2,1} + 3 R{2,6}
   + 3 R{2,7} + 3 R{2,8} + 3 R{2,9} + 3 R{2,10} + 3 R{2,11} + 3 R{2,12}
   + 3 R{2,14} + 3 R{2,15} + 3 R{2,16} + 3 R{2,19} + 3 R{2,21} + 3 R{4,5}
   <= 3
 R2_68: 6 R{4,1} + 6 R{4,4} + 6 R{4,7} + 6 R{4,8} + 6 R{4,9} + 6 R{4,10}
   + 6 R{4,11} + 6 R{4,12} + 6 R{4,15} + 6 R{4,17} + 6 R{4,18} + 6 R{4,19}
   + 6 R{4,20} <= 6
 R2_69: 7 R{4,1} + 7 R{4,2} + 7 R{4,3} + 7 R{4,4} + 7 R{4,6} + 7 R{4,7}
   + 7 R{4,8} + 7 R{4,9} + 7 R{4,10} + 7 R{4,11} + 7 R{4,12} + 7 R{4,13}
   + 7 R{4,14} + 7 R{4,15} + 7 R{4,16} + 7 R{4,17} + 7 R{4,18} + 7 R{4,19}
   + 7 R{4,20} + 7 R{4,21} + 7 R{4,22} + 7 R{4,23} + 7 R{4,24} <= 7
 R2_70: 11 R{1,1} + 11 R{1,2} + 11 R{1,4} + 11 R{1,5} + 11 R{1,7}
   + 11 R{1,8} + 11 R{1,9} + 11 R{1,10} <= 11
 R2_71: 7 R{3,1} + 7 R{3,2} + 7 R{3,3} + 7 R{3,4} + 7 R{3,5} + 7 R{3,6}
   + 7 R{3,7} + 7 R{3,8} + 7 R{3,9} + 7 R{3,11} + 7 R{3,12} + 7 R{3,16}
   + 7 R{3,17} + 7 R{3,18} + 7 R{3,19} <= 7
 R2_72: <= 0
 R2_73: <= 0
 R2_74: 5 R{5,1} + 5 R{5,3} + 5 R{5,4} + 5 R{5,5} + 5 R{5,6} + 5 R{5,7}
   + 5 R{5,8} + 5 R{5,9} + 5 R{5,10} + 5 R{5,11} + 5 R{5,12} + 5 R{5,13}
   + 5 R{5,14} + 5 R{5,16} + 5 R{5,17} + 5 R{5,18} + 5 R{5,19} + 5 R{5,20}
   + 5 R{5,21} <= 5
 R2_75: 8 R{6,1} + 8 R{6,2} + 8 R{6,3} + 8 R{6,4} + 8 R{6,5} + 8 R{6,6}
   + 8 R{6,9} + 8 R{6,10} + 8 R{6,12} + 8 R{6,13} + 8 R{6,14} + 8 R{6,15}
   + 8 R{6,16} + 8 R{6,19} + 8 R{6,20} + 8 R{6,22} + 8 R{6,23} + 8 R{6,24}
   + 8 R{6,25} <= 8
 R2_76: 12 R{0,4} + 12 R{0,5} + 12 R{0,6} + 12 R{0,8} + 12 R{0,9}
   + 12 R{3,3} + 12 R{3,5} + 12 R{3,10} + 12 R{3,12} + 12 R{3,13}
   + 12 R{3,15} + 12 R{3,16} + 12 R{3,17} + 12 R{3,19} + 12 R{3,20} <= 12
 R2_77: 7 R{0,5} + 7 R{0,8} + 7 R{1,2} + 7 R{1,3} + 7 R{1,4} + 7 R{1,5}
   + 7 R{1,6} + 7 R{1,7} + 7 R{2,4} + 7 R{2,5} + 7 R{2,13} + 7 R{3,14}
   + 7 R{4,2} + 7 R{4,3} + 7 R{4,6} + 7 R{5,2} + 7 R{5,15} + 7 R{6,2}
   + 7 R{6,3} + 7 R{6,6} + 7 R{6,8} + 7 R{6,9} + 7 R{6,10} + 7 R{6,12}
   + 7 R{6,14} + 7 R{6,15} + 7 R{6,18} + 7 R{6,21} + 7 R{6,22} + 7 R{6,23}
   + 7 R{6,24} <= 7
Bounds
End
